33

C      -4.527451915744123     -0.532461832259380     -0.434564671212957
C      -3.089515250256572     -0.039205647337260     -0.299188535862492
C      -3.013278281058601      1.108756068683641      0.703087135467012
C      -2.171799277191154     -1.199171629004303      0.126221343510003
C      -0.726546243691362     -0.799224666588168      0.116485523110303
C      -0.039376754082322     -0.681397787795567     -1.087189193152998
C       1.283512191998585     -0.286954104312893     -1.113945904311894
C       1.959415848832809      0.002361053063784      0.068040618725290
C       1.275099503306011     -0.110464175726305      1.271041875083935
C      -0.050091806935556     -0.508581880424129      1.293417583295623
C       3.408781548626362      0.420587384355513      0.026684769984088
C       4.319024505577461     -0.735582637685871     -0.388606516650017
C       3.600355330087073      1.615607281265264     -0.907652730408714
O       4.506275302945538      1.734549711229598     -1.677920969182706
O       2.667692699282544      2.577716832231134     -0.779354534622331
H      -4.888781847224979     -0.914636088677424      0.518031655549899
H      -4.595702902185239     -1.329207021312577     -1.172008027676346
H      -5.179963294105379      0.279549488019576     -0.747031999432308
H      -2.750211015991849      0.327512663955786     -1.274364893591111
H      -3.649167670865956      1.932063350251514      0.385945330200762
H      -3.346446634711982      0.777970393993285      1.684830911368523
H      -1.993530547222555      1.477130085792399      0.790359928913437
H      -2.319651337973183     -2.032041993134215     -0.565275141673688
H      -2.460168540576225     -1.531234726135617      1.125489272829049
H      -0.547634600647958     -0.906221215013412     -2.013594523262711
H       1.801094656439770     -0.197807828968607     -2.058348183360502
H       1.783427246666868      0.107763592449340      2.200319353155236
H      -0.563019343409915     -0.595679702082051      2.240309451294405
H       3.712398089919384      0.766087918771658      1.024391413882257
H       4.258940422840533     -1.540779335459369      0.339470960562413
H       4.022496815884343     -1.119720124110251     -1.360854535036733
H       5.346453325329548     -0.388861167088575     -0.458542263888834
H       1.967369776140039      2.321577739053624     -0.161428735044675
